proyfinal/src/viki/013/experimentInOfficeAgust.take6.output/c1f8a4c6-514f-4792-a57d-1a28073559c8.als.dat
{'cnf.clauses': '118081',
 'cnf.totvars': '69608',
 'conflict literals': '338',
 'conflicts': '61',
 'decisions': '2629',
 'memused.mb': '18.43',
 'outcome': 'UNSAT',
 'propagations': '120755',
 'restarts': '1',
 'solver.msecs': 28,
 'task.msecs': 71}
