proyfinal/src/viki/013/experimentInOfficeAgust.take6.output/c1f8a4c6-514f-4792-a57d-1a28073559c8.als.out
Reading from standard input... Use '--help' for help.
============================[ Problem Statistics ]=============================
|                                                                             |
|  Number of variables:         69608                                         |
|  Number of clauses:          118081                                         |
|  Parse time:                   0.02 s                                       |
|                                                                             |
============================[ Search Statistics ]==============================
| Conflicts |          ORIGINAL         |          LEARNT          | Progress |
|           |    Vars  Clauses Literals |    Limit  Clauses Lit/Cl |          |
===============================================================================
===============================================================================
restarts              : 1
conflicts             : 61             (2127 /sec)
decisions             : 2629           (0.00 % random) (91660 /sec)
propagations          : 120755         (4210132 /sec)
conflict literals     : 338            (17.56 % deleted)
Memory used           : 18.43 MB
CPU time              : 0.028682 s

UNSATISFIABLE
